73 73
44 36
26 21
1 23
69 34
64 20
60 4
52 2
46 3
45 29
43 16
21 18
9 33
61 4
16 5
23 16
17 24
34 35
56 31
67 9
24 22
70 18
27 28
38 12
29 33
73 32
71 7
33 32
25 13
8 17
72 17
40 36
53 11
11 28
2 5
32 19
5 22
57 10
13 2
58 15
63 12
18 26
19 20
50 30
59 27
12 35
41 37
14 1
20 26
66 27
68 30
47 3
30 25
15 25
51 24
62 6
48 10
4 34
37 9
28 11
10 14
65 8
6 6
54 14
39 1
55 23
36 13
3 19
31 15
35 31
49 7
42 8
7 29
22 21
